NAME: random84
TYPE: TSP
DIMENSION: 84
EDGE_WEIGHT_TYPE: EXPLICIT
EDGE_WEIGHT_FORMAT: FULL_MATRIX
EDGE_WEIGHT_SECTION
0 129 129 17 129 129 129 129 129 129 129 129 129 129 129 129 27 129 17 129 33 129 129 21 129 25 129 129 129 33 129 129 129 61 129 9 41 129 19 129 129 129 26 129 129 22 129 129 129 28 129 129 129 129 129 129 129 129 129 129 129 129 129 129 28 129 129 129 129 24 25 10 129 129 129 15 129 129 129 129 29 129 13 129
129 0 129 129 129 14 129 129 129 129 129 40 24 129 129 129 129 22 15 129 11 129 129 129 129 18 129 22 129 24 129 35 129 42 129 129 129 129 14 33 129 129 129 129 129 13 129 129 21 129 129 129 129 31 129 129 3 13 129 42 129 14 129 10 129 129 7 129 36 129 24 129 129 33 129 18 129 129 129 18 129 129 20 129
129 129 0 129 129 129 17 129 129 6 129 129 129 129 1 129 129 129 129 129 129 15 129 129 129 129 129 129 14 129 129 129 129 129 129 129 129 129 129 129 129 129 129 129 129 129 129 129 129 129 29 9 129 129 52 129 129 129 35 129 129 129 129 129 129 36 129 6 129 129 129 129 8 129 129 129 35 129 129 129 129 129 129 129
17 129 129 0 129 26 129 129 129 129 129 129 129 129 129 129 16 129 24 17 129 129 129 16 129 38 129 129 129 129 129 129 19 129 129 16 26 129 129 129 129 27 11 129 129 129 129 129 129 16 129 129 129 129 38 129 129 129 129 129 27 129 129 129 12 129 129 129 129 15 40 18 129 129 129 25 129 27 129 129 21 129 20 129
129 129 129 129 0 129 129 129 129 52 20 129 129 23 129 19 129 129 129 11 129 129 15 129 25 129 29 129 129 129 129 129 9 129 129 129 23 129 129 129 14 15 19 129 129 129 129 129 129 22 129 49 129 129 11 129 129 129 24 129 26 129 35 129 20 23 129 129 129 129 129 129 129 129 129 129 129 4 129 129 129 129 129 129
129 14 129 26 129 0 129 129 129 129 129 129 129 129 129 129 17 129 13 129 24 129 129 129 19 129 129 17 129 129 129 129 129 129 129 129 129 8 11 129 129 129 24 129 129 19 129 129 129 17 129 129 129 129 129 129 11 16 129 129 16 6 129 9 129 129 8 129 129 129 129 18 129 129 129 17 129 129 129 12 10 129 15 21
129 129 17 129 129 129 0 40 57 129 37 129 129 34 129 129 129 129 129 129 129 3 129 129 129 129 129 129 5 129 38 129 129 129 129 129 129 129 129 129 129 129 129 43 31 129 129 129 129 129 16 20 129 129 129 129 129 129 39 129 129 129 45 129 129 34 129 11 129 129 129 129 9 129 34 129 19 129 50 129 129 129 129 129
129 129 129 129 129 129 40 0 40 129 36 129 42 33 129 29 129 129 129 129 129 42 129 129 129 129 21 20 39 129 19 32 129 129 129 129 129 129 129 129 33 129 129 35 18 129 12 5 28 129 24 129 37 129 129 129 129 129 129 46 129 129 13 129 129 34 129 129 8 129 129 129 129 129 27 129 23 129 42 129 129 129 129 21
129 129 129 129 129 129 57 40 0 129 129 82 129 129 129 129 129 129 129 129 129 59 129 129 129 129 129 129 129 129 24 36 129 129 12 129 129 129 129 61 129 129 129 15 30 129 129 129 47 129 129 129 10 48 129 8 129 129 129 41 129 129 129 129 129 129 129 129 40 129 129 129 129 129 129 129 41 129 12 129 129 129 129 129
129 129 6 129 52 129 129 129 129 0 34 129 129 32 5 42 129 129 129 129 129 19 37 129 129 129 129 129 16 129 129 129 129 129 129 129 129 129 129 129 49 129 129 129 129 129 129 129 129 129 29 3 129 129 47 129 129 129 29 129 129 129 129 129 129 31 129 9 129 129 129 129 11 129 129 129 129 55 129 129 129 129 129 129
129 129 129 129 20 129 37 36 129 34 0 129 129 4 37 11 129 129 129 129 129 129 7 129 27 129 26 129 33 129 129 129 26 129 129 129 129 129 129 129 16 129 129 129 129 129 129 129 129 129 29 30 129 129 20 129 129 129 11 129 129 129 29 129 129 3 129 36 129 129 129 129 129 129 9 129 129 24 129 129 129 129 129 129
129 40 129 129 129 129 129 129 82 129 129 0 32 129 129 129 129 19 129 129 32 129 129 129 129 37 129 129 129 30 81 48 129 6 74 129 129 129 129 21 129 129 129 129 129 129 129 129 129 129 129 129 73 35 129 88 129 47 129 42 129 129 129 129 129 129 129 129 129 129 38 129 129 29 129 129 129 129 129 129 129 34 129 129
129 24 129 129 129 129 129 42 129 129 129 32 0 129 129 129 129 21 129 129 26 129 129 129 129 37 129 30 129 37 49 17 129 37 47 129 129 129 129 13 129 129 129 129 129 35 40 129 15 129 129 129 44 7 129 129 25 21 129 19 129 31 129 34 129 129 27 129 34 129 129 129 129 10 129 129 129 129 129 31 129 10 129 44
129 129 129 129 23 129 34 33 129 32 4 129 129 0 129 10 129 129 129 129 129 36 11 129 129 129 25 129 30 129 129 129 129 129 129 129 129 129 129 129 17 129 129 129 41 129 129 33 129 129 25 29 129 129 24 129 129 129 13 129 129 129 27 129 129 1 129 34 129 129 129 129 129 129 5 129 34 129 129 129 129 129 129 26
129 129 1 129 129 129 129 129 129 5 37 129 129 129 0 129 129 129 129 129 129 15 41 129 129 129 129 129 13 129 129 129 129 129 129 129 129 129 129 129 129 129 129 129 129 129 129 129 129 129 28 8 129 129 51 129 129 129 34 129 129 129 129 129 129 34 129 5 129 129 129 129 7 129 129 129 129 129 129 129 129 129 129 129
129 129 129 129 19 129 129 29 129 42 11 129 129 10 129 0 129 129 129 129 129 129 15 129 16 129 16 30 38 129 129 129 22 129 129 129 129 129 129 129 8 129 129 129 129 129 22 28 129 24 29 39 129 129 25 129 129 129 21 129 19 129 19 129 129 11 129 129 33 129 129 129 129 129 8 129 37 23 129 129 129 129 129 16
27 129 129 16 129 17 129 129 129 129 129 129 129 129 129 129 0 129 23 14 129 129 129 32 13 129 129 129 129 129 129 129 15 129 129 30 34 12 22 129 18 31 8 129 129 31 129 129 129 1 129 129 129 129 129 129 129 129 129 129 11 20 129 23 21 129 129 129 129 30 42 22 129 129 129 26 129 24 129 22 8 129 21 19
129 22 129 129 129 129 129 129 129 129 129 19 21 129 129 129 129 0 129 129 13 129 129 129 129 21 129 41 129 18 129 38 129 21 68 129 129 129 31 19 129 129 129 129 129 24 129 129 31 129 129 129 65 27 129 129 25 30 129 38 129 129 129 29 129 129 28 129 129 129 24 129 129 24 129 32 129 129 129 129 129 28 129 129
17 15 129 24 129 13 129 129 129 129 129 129 129 129 129 129 23 129 0 129 19 129 129 129 129 16 129 129 129 25 129 129 129 129 129 129 129 20 2 129 129 129 129 129 129 9 129 129 129 129 129 129 129 129 129 129 15 129 129 129 129 129 129 6 129 129 14 129 129 129 20 8 129 129 129 5 129 129 129 129 19 129 4 129
129 129 129 17 11 129 129 129 129 129 129 129 129 129 129 129 14 129 129 0 129 129 25 29 21 129 27 129 129 129 129 129 2 129 129 129 22 129 129 129 16 17 8 129 129 129 129 129 129 13 129 129 129 129 22 129 129 129 129 129 21 129 129 129 12 129 129 129 129 25 129 32 129 129 129 129 129 11 129 129 21 129 32 129
33 11 129 129 129 24 129 129 129 129 129 32 26 129 129 129 129 13 19 129 0 129 129 129 129 11 129 129 129 13 129 129 129 32 129 129 129 129 18 30 129 129 129 129 129 11 129 129 29 129 129 129 129 129 129 129 14 23 129 129 129 129 129 16 129 129 18 129 129 129 16 129 129 33 129 18 129 129 129 129 129 129 23 129
129 129 15 129 129 129 3 42 59 19 129 129 129 36 15 129 129 129 129 129 129 0 129 129 129 129 129 129 6 129 40 129 129 129 70 129 129 129 129 129 129 129 129 44 33 129 129 129 129 129 19 20 63 129 129 64 129 129 129 129 129 129 129 129 129 37 129 10 129 129 129 129 8 129 37 129 21 129 51 129 129 129 129 129
129 129 129 129 15 129 129 129 129 37 7 129 129 11 41 15 129 129 129 25 129 129 0 129 29 129 30 129 40 129 129 129 23 129 129 129 36 129 129 129 17 28 129 129 129 129 129 129 129 32 36 34 129 129 12 129 129 129 9 129 129 129 34 129 129 11 129 129 129 129 129 129 129 129 16 129 129 18 129 129 129 129 129 31
21 129 129 16 129 129 129 129 129 129 129 129 129 129 129 129 32 129 129 29 129 129 129 0 129 129 129 129 129 129 129 129 129 129 129 13 24 129 129 129 129 30 26 129 129 129 129 129 129 129 129 129 129 129 45 129 129 129 129 129 129 129 129 129 18 129 129 129 129 5 46 28 129 129 129 36 129 129 129 129 129 129 129 129
129 129 129 129 25 19 129 129 129 129 27 129 129 129 129 16 13 129 129 21 129 129 29 129 0 129 6 18 129 129 129 129 20 129 129 129 129 10 129 129 12 129 19 129 129 129 15 24 129 13 129 129 129 129 129 129 129 26 129 129 3 18 14 129 129 129 129 129 129 129 129 129 129 129 23 129 129 28 129 16 11 129 30 6
25 18 129 38 129 129 129 129 129 129 129 37 37 129 129 129 129 21 16 129 11 129 129 129 129 0 129 129 129 8 129 129 129 36 129 35 129 129 17 129 129 129 129 129 129 8 129 129 129 129 129 129 129 129 129 129 21 129 129 129 129 129 129 17 129 129 129 129 129 129 6 20 129 129 129 13 129 129 129 129 129 129 19 129
129 129 129 129 29 129 129 21 129 129 26 129 129 25 129 16 129 129 129 27 129 129 30 129 6 129 0 15 129 129 129 129 26 129 129 129 129 14 129 129 15 129 129 129 129 129 9 17 129 19 34 129 129 129 38 129 129 129 37 129 8 129 8 129 129 129 129 129 21 129 129 129 129 129 21 129 129 129 129 15 16 129 129 1
129 22 129 129 129 17 129 20 129 129 129 129 30 129 129 30 129 41 129 129 129 129 129 129 18 129 15 0 129 129 37 29 129 129 129 129 129 15 129 129 129 129 129 129 129 129 12 15 16 27 129 129 47 34 129 129 19 11 129 129 17 11 14 129 129 129 17 129 15 129 129 129 129 129 129 129 129 129 129 6 19 129 129 14
129 129 14 129 129 129 5 39 129 16 33 129 129 30 13 38 129 129 129 129 129 6 40 129 129 129 129 129 0 129 129 129 129 129 129 129 129 129 129 129 129 129 129 46 33 129 129 129 129 129 15 16 129 129 51 129 129 129 34 129 129 129 129 129 129 30 129 9 129 129 129 129 8 129 31 129 20 129 53 129 129 129 129 129
33 24 129 129 129 129 129 129 129 129 129 30 37 129 129 129 129 18 25 129 13 129 129 129 129 8 129 129 129 0 129 129 129 28 129 42 129 129 129 37 129 129 129 129 129 16 129 129 129 129 129 129 129 129 129 129 129 36 129 55 129 129 129 25 129 129 129 129 129 129 8 28 129 129 129 22 129 129 129 129 129 129 129 129
129 129 129 129 129 129 38 19 24 129 129 81 49 129 129 129 129 129 129 129 129 40 129 129 129 129 129 37 129 129 0 34 129 129 32 129 129 129 129 129 129 129 129 16 7 129 31 23 38 129 27 129 24 47 129 31 129 44 129 45 129 129 31 129 129 129 129 129 22 129 129 129 129 129 42 129 20 129 23 129 129 49 129 129
129 35 129 129 129 129 129 32 36 129 129 48 17 129 129 129 129 38 129 129 129 129 129 129 129 129 129 29 129 129 34 0 129 129 31 129 129 129 129 27 129 129 129 43 40 129 35 30 15 129 129 129 27 13 129 43 35 25 129 14 129 129 37 129 129 129 129 129 25 129 129 129 129 20 129 129 51 129 46 32 129 15 129 42
129 129 129 19 9 129 129 129 129 129 26 129 129 129 129 22 15 129 129 2 129 129 23 129 20 129 26 129 129 129 129 129 0 129 129 129 22 129 129 129 14 17 10 129 129 129 129 129 129 14 129 129 129 129 20 129 129 129 32 129 21 129 129 129 14 129 129 129 129 129 129 129 129 129 129 129 129 10 129 129 22 129 129 26
61 42 129 129 129 129 129 129 129 129 129 6 37 129 129 129 129 21 129 129 32 129 129 129 129 36 129 129 129 28 129 129 129 0 79 129 129 129 129 27 129 129 129 129 129 42 129 129 129 129 129 129 129 129 129 129 129 129 129 47 129 129 129 129 129 129 129 129 129 129 36 129 129 34 129 48 129 129 129 129 129 129 129 129
129 129 129 129 129 129 129 129 12 129 129 74 47 129 129 129 129 68 129 129 129 70 129 129 129 129 129 129 129 129 32 31 129 79 0 129 129 129 129 53 129 129 129 27 39 129 129 129 129 129 129 129 8 41 129 14 129 129 129 32 129 129 129 129 129 129 129 129 42 129 129 129 129 45 129 129 129 129 24 129 129 40 129 129
9 129 129 16 129 129 129 129 129 129 129 129 129 129 129 129 30 129 129 129 129 129 129 13 129 35 129 129 129 42 129 129 129 129 129 0 35 129 129 129 129 129 27 129 129 32 129 129 129 129 129 129 129 129 129 129 129 129 129 129 129 129 129 129 25 129 129 129 129 16 34 18 129 129 129 25 129 129 129 129 129 129 22 129
41 129 129 26 23 129 129 129 129 129 129 129 129 129 129 129 34 129 129 22 129 129 36 24 129 129 129 129 129 129 129 129 22 129 129 35 0 129 129 129 129 8 26 129 129 129 129 129 129 33 129 129 129 129 25 129 129 129 129 129 129 129 129 129 14 129 129 129 129 20 129 129 129 129 129 129 129 19 129 129 129 129 129 129
129 129 129 129 129 8 129 129 129 129 129 129 129 129 129 129 12 129 20 129 129 129 129 129 10 129 14 15 129 129 129 129 129 129 129 129 129 0 18 129 22 129 19 129 129 129 20 129 29 12 129 129 129 129 129 129 19 19 129 129 8 9 129 17 129 129 15 129 129 129 129 23 129 129 129 129 129 129 129 11 4 129 21 14
19 14 129 129 129 11 129 129 129 129 129 129 129 129 129 129 22 31 2 129 18 129 129 129 129 17 129 129 129 129 129 129 129 129 129 129 129 18 0 129 129 129 129 129 129 9 129 129 129 23 129 129 129 129 129 129 13 23 129 129 26 16 129 4 129 129 12 129 129 129 21 10 129 129 129 6 129 129 129 129 18 129 6 129
129 33 129 129 129 129 129 129 61 129 129 21 13 129 129 129 129 19 129 129 30 129 129 129 129 129 129 129 129 37 129 27 129 27 53 129 129 129 129 0 129 129 129 129 129 41 129 129 28 129 129 129 52 14 129 129 35 33 129 21 129 129 129 129 129 129 129 129 129 129 43 129 129 8 129 129 129 129 129 129 129 13 129 129
129 129 129 129 14 129 129 33 129 49 16 129 129 17 129 8 18 129 129 16 129 129 17 129 12 129 15 129 129 129 129 129 14 129 129 129 129 22 129 129 0 29 19 129 129 129 23 129 129 17 129 129 129 129 23 129 129 129 25 129 14 129 21 129 28 18 129 129 129 129 129 129 129 129 15 129 129 18 129 28 20 129 129 15
129 129 129 27 15 129 129 129 129 129 129 129 129 129 129 129 31 129 129 17 129 129 28 30 129 129 129 129 129 129 129 129 17 129 129 129 8 129 129 129 29 0 24 129 129 129 129 129 129 30 129 129 129 129 17 129 129 129 34 129 129 129 129 129 15 129 129 129 129 25 129 129 129 129 129 129 129 11 129 129 129 129 129 129
26 129 129 11 19 24 129 129 129 129 129 129 129 129 129 129 8 129 129 8 129 129 129 26 19 129 129 129 129 129 129 129 10 129 129 27 26 19 129 129 19 24 0 129 129 129 129 129 129 7 129 129 129 129 30 129 129 129 129 129 18 129 129 129 13 129 129 129 129 23 129 24 129 129 129 30 129 19 129 129 15 129 24 129
129 129 129 129 129 129 43 35 15 129 129 129 129 129 129 129 129 129 129 129 129 44 129 129 129 129 129 129 46 129 16 43 129 129 27 129 129 129 129 129 129 129 129 0 19 129 129 39 129 129 37 129 22 129 129 20 129 129 129 52 129 129 129 129 129 129 129 129 37 129 129 129 52 129 56 129 28 129 8 129 129 129 129 129
129 129 129 129 129 129 31 18 30 129 129 129 129 41 129 129 129 129 129 129 129 33 129 129 129 129 129 129 33 129 7 40 129 129 39 129 129 129 129 129 129 129 129 19 0 129 30 23 42 129 20 129 31 129 129 37 129 129 129 129 129 129 30 129 129 129 129 129 23 129 129 129 129 129 37 129 12 129 27 129 129 129 129 129
22 13 129 129 129 19 129 129 129 129 129 129 35 129 129 129 31 24 9 129 11 129 129 129 129 8 129 129 129 16 129 129 129 42 129 32 129 129 9 41 129 129 129 129 129 0 129 129 129 129 129 129 129 129 129 129 14 25 129 129 129 22 129 9 129 129 16 129 129 129 13 15 129 129 129 7 129 129 129 129 27 129 12 129
129 129 129 129 129 129 129 12 129 129 129 129 40 129 129 22 129 129 129 129 129 129 129 129 15 129 9 12 129 129 31 35 129 129 129 129 129 20 129 129 23 129 129 129 30 129 0 8 25 129 30 129 129 129 129 129 129 23 129 129 17 21 2 129 129 129 129 129 12 129 129 129 129 129 24 129 129 129 129 15 129 129 129 9
129 129 129 129 129 129 129 5 129 129 129 129 129 33 129 28 129 129 129 129 129 129 129 129 24 129 17 15 129 129 23 30 129 129 129 129 129 129 129 129 129 129 129 39 23 129 8 0 24 129 28 129 39 129 129 129 129 25 129 129 129 129 10 129 129 129 129 129 6 129 129 129 129 129 28 129 28 129 129 21 129 129 129 17
129 21 129 129 129 129 129 28 47 129 129 129 15 129 129 129 129 31 129 129 29 129 129 129 129 129 129 16 129 129 38 15 129 129 129 129 129 29 129 28 129 129 129 129 42 129 25 24 0 129 129 129 39 18 129 129 20 11 129 26 33 21 28 29 129 129 21 129 20 129 129 129 129 24 129 129 129 129 129 18 129 21 129 30
28 129 129 16 22 17 129 129 129 129 129 129 129 129 129 24 1 129 129 13 129 129 32 129 13 129 19 27 129 129 129 129 14 129 129 129 33 12 23 129 17 30 7 129 129 129 129 129 129 0 129 129 129 129 33 129 129 129 129 129 11 21 27 129 20 129 129 129 129 30 129 23 129 129 129 27 129 24 129 23 8 129 22 19
129 129 29 129 129 129 16 24 129 29 29 129 129 25 28 29 129 129 129 129 129 19 36 129 129 129 34 129 15 129 27 129 129 129 129 129 129 129 129 129 129 129 129 37 20 129 30 28 129 129 0 28 129 129 129 129 129 129 34 129 129 129 29 129 129 26 129 24 32 129 129 129 23 129 23 129 9 129 45 129 129 129 129 129
129 129 9 129 49 129 20 129 129 3 30 129 129 29 8 39 129 129 129 129 129 20 34 129 129 129 129 129 16 129 129 129 129 129 129 129 129 129 129 129 129 129 129 129 129 129 129 129 129 129 28 0 129 129 44 129 129 129 26 129 129 129 129 129 129 28 129 11 129 129 129 129 13 129 32 129 35 129 129 129 129 129 129 129
129 129 129 129 129 129 129 37 10 129 129 73 44 129 129 129 129 65 129 129 129 63 129 129 129 129 129 47 129 129 24 27 129 129 8 129 129 129 129 52 129 129 129 22 31 129 129 39 39 129 129 129 0 39 129 16 129 129 129 31 129 129 129 129 129 129 129 129 35 129 129 129 129 44 129 129 43 129 21 129 129 39 129 129
129 31 129 129 129 129 129 129 48 129 129 35 7 129 129 129 129 27 129 129 129 129 129 129 129 129 129 34 129 129 47 13 129 129 41 129 129 129 129 14 129 129 129 129 129 129 129 129 18 129 129 129 39 0 129 129 129 26 129 11 129 129 129 129 129 129 129 129 35 129 129 129 129 7 129 129 129 129 129 129 129 3 129 129
129 129 52 38 11 129 129 129 129 47 20 129 129 24 51 25 129 129 129 22 129 129 12 45 129 129 38 129 51 129 129 129 20 129 129 129 25 129 129 129 23 17 30 129 129 129 129 129 129 33 129 44 129 129 0 129 129 129 18 129 129 129 129 129 28 23 129 52 129 40 129 129 129 129 129 129 129 11 129 129 129 129 129 129
129 129 129 129 129 129 129 129 8 129 129 88 129 129 129 129 129 129 129 129 129 64 129 129 129 129 129 129 129 129 31 43 129 129 14 129 129 129 129 129 129 129 129 20 37 129 129 129 129 129 129 129 16 129 129 0 129 129 129 46 129 129 129 129 129 129 129 129 129 129 129 129 129 129 129 129 47 129 13 129 129 129 129 129
129 3 129 129 129 11 129 129 129 129 129 129 25 129 129 129 129 25 15 129 14 129 129 129 129 21 129 19 129 129 129 35 129 129 129 129 129 19 13 35 129 129 129 129 129 14 129 129 20 129 129 129 129 129 129 129 0 11 129 129 129 11 129 9 129 129 3 129 129 129 129 129 129 129 129 129 129 129 129 15 129 129 19 129
129 13 129 129 129 16 129 129 129 129 129 47 21 129 129 129 129 30 129 129 23 129 129 129 26 129 129 11 129 36 44 25 129 129 129 129 129 19 23 33 129 129 129 129 129 25 23 25 11 129 129 129 129 26 129 129 11 0 129 36 25 11 25 19 129 129 11 129 23 129 129 129 129 31 129 129 129 129 129 10 23 129 129 24
129 129 35 129 24 129 39 129 129 29 11 129 129 13 34 21 129 129 129 129 129 129 9 129 129 129 37 129 34 129 129 129 32 129 129 129 129 129 129 129 25 34 129 129 129 129 129 129 129 129 34 26 129 129 18 129 129 129 0 129 129 129 129 129 129 12 129 35 129 129 129 129 37 129 19 129 129 26 129 129 129 129 129 129
129 42 129 129 129 129 129 46 41 129 129 42 19 129 129 129 129 38 129 129 129 129 129 129 129 129 129 129 129 55 45 14 129 47 32 129 129 129 129 21 129 129 129 52 129 129 129 129 26 129 129 129 31 11 129 46 129 36 129 0 129 129 129 129 129 129 129 129 39 129 129 129 129 14 129 129 129 129 52 129 129 9 129 129
129 129 129 27 26 16 129 129 129 129 129 129 129 129 129 19 11 129 129 21 129 129 129 129 3 129 8 17 129 129 129 129 21 129 129 129 129 8 26 129 14 129 18 129 129 129 17 129 33 11 129 129 129 129 129 129 129 25 129 129 0 16 16 129 129 129 23 129 28 129 129 29 129 129 129 129 129 129 129 15 8 129 28 8
129 14 129 129 129 6 129 129 129 129 129 129 31 129 129 129 20 129 129 129 129 129 129 129 18 129 129 11 129 129 129 129 129 129 129 129 129 9 16 129 129 129 129 129 129 22 21 129 21 21 129 129 129 129 129 129 11 11 129 129 16 0 129 14 129 129 8 129 26 129 129 129 129 129 129 129 129 129 129 6 13 129 21 18
129 129 129 129 35 129 45 13 129 129 29 129 129 27 129 19 129 129 129 129 129 129 34 129 14 129 8 14 129 129 31 37 129 129 129 129 129 129 129 129 21 129 129 129 30 129 2 10 28 27 29 129 129 129 129 129 129 25 129 129 16 129 0 129 129 28 129 129 14 129 129 129 129 129 21 129 32 129 129 17 129 129 129 8
129 10 129 129 129 9 129 129 129 129 129 129 34 129 129 129 23 29 6 129 16 129 129 129 129 17 129 129 129 25 129 129 129 129 129 129 129 17 4 129 129 129 129 129 129 9 129 129 29 129 129 129 129 129 129 129 9 19 129 129 129 14 129 0 129 129 8 129 129 129 129 129 129 129 129 10 129 129 129 19 18 129 10 129
28 129 129 12 20 129 129 129 129 129 129 129 129 129 129 129 21 129 129 12 129 129 129 18 129 129 129 129 129 129 129 129 14 129 129 25 14 129 129 129 28 15 13 129 129 129 129 129 129 20 129 129 129 129 28 129 129 129 129 129 129 129 129 129 0 129 129 129 129 13 129 30 129 129 129 129 129 18 129 129 28 129 32 129
129 129 36 129 23 129 34 34 129 31 3 129 129 1 34 11 129 129 129 129 129 37 11 129 129 129 129 129 30 129 129 129 129 129 129 129 129 129 129 129 18 129 129 129 129 129 129 129 129 129 26 28 129 129 23 129 129 129 12 129 129 129 28 129 129 0 129 34 129 129 129 129 35 129 7 129 35 129 129 129 129 129 129 129
129 7 129 129 129 8 129 129 129 129 129 129 27 129 129 129 129 28 14 129 18 129 129 129 129 129 129 17 129 129 129 129 129 129 129 129 129 15 12 129 129 129 129 129 129 16 129 129 21 129 129 129 129 129 129 129 3 11 129 129 23 8 129 8 129 129 0 129 129 129 129 129 129 129 129 129 129 129 129 12 18 129 18 26
129 129 6 129 129 129 11 129 129 9 36 129 129 34 5 129 129 129 129 129 129 10 129 129 129 129 129 129 9 129 129 129 129 129 129 129 129 129 129 129 129 129 129 129 129 129 129 129 129 129 24 11 129 129 52 129 129 129 35 129 129 129 129 129 129 34 129 0 129 129 129 129 3 129 129 129 29 129 129 129 129 129 129 129
129 36 129 129 129 129 129 8 40 129 129 129 34 129 129 33 129 129 129 129 129 129 129 129 129 129 21 15 129 129 22 25 129 129 42 129 129 129 129 129 129 129 129 37 23 129 12 6 20 129 32 129 35 35 129 129 129 23 129 39 28 26 14 129 129 129 129 129 0 129 129 129 129 42 33 129 31 129 129 21 129 129 129 21
24 129 129 15 129 129 129 129 129 129 129 129 129 129 129 129 30 129 129 25 129 129 129 5 129 129 129 129 129 129 129 129 129 129 129 16 20 129 129 129 129 25 23 129 129 129 129 129 129 30 129 129 129 129 40 129 129 129 129 129 129 129 129 129 13 129 129 129 129 0 49 30 129 129 129 129 129 31 129 129 129 129 129 129
25 24 129 40 129 129 129 129 129 129 129 38 129 129 129 129 42 24 20 129 16 129 129 46 129 6 129 129 129 8 129 129 129 36 129 34 129 129 21 43 129 129 129 129 129 13 129 129 129 129 129 129 129 129 129 129 129 129 129 129 129 129 129 129 129 129 129 129 129 49 0 22 129 129 129 16 129 129 129 129 129 129 21 129
10 129 129 18 129 18 129 129 129 129 129 129 129 129 129 129 22 129 8 32 129 129 129 28 129 20 129 129 129 28 129 129 129 129 129 18 129 23 10 129 129 129 24 129 129 15 129 129 129 23 129 129 129 129 129 129 129 129 129 129 29 129 129 129 30 129 129 129 129 30 22 0 129 129 129 7 129 129 129 129 21 129 4 129
129 129 8 129 129 129 9 129 129 11 129 129 129 129 7 129 129 129 129 129 129 8 129 129 129 129 129 129 8 129 129 129 129 129 129 129 129 129 129 129 129 129 129 52 129 129 129 129 129 129 23 13 129 129 129 129 129 129 37 129 129 129 129 129 129 35 129 3 129 129 129 129 0 129 129 129 28 129 129 129 129 129 129 129
129 33 129 129 129 129 129 129 129 129 129 29 10 129 129 129 129 24 129 129 33 129 129 129 129 129 129 129 129 129 129 20 129 34 45 129 129 129 129 8 129 129 129 129 129 129 129 129 24 129 129 129 44 7 129 129 129 31 129 14 129 129 129 129 129 129 129 129 42 129 129 129 129 0 129 129 129 129 129 129 129 5 129 129
129 129 129 129 129 129 34 27 129 129 9 129 129 5 129 8 129 129 129 129 129 37 16 129 23 129 21 129 31 129 42 129 129 129 129 129 129 129 129 129 15 129 129 56 37 129 24 28 129 129 23 32 129 129 129 129 129 129 19 129 129 129 21 129 129 7 129 129 33 129 129 129 129 129 0 129 31 129 129 129 129 129 129 21
15 18 129 25 129 17 129 129 129 129 129 129 129 129 129 129 26 32 5 129 18 129 129 36 129 13 129 129 129 22 129 129 129 48 129 25 129 129 6 129 129 129 30 129 129 7 129 129 129 27 129 129 129 129 129 129 129 129 129 129 129 129 129 10 129 129 129 129 129 129 16 7 129 129 129 0 129 129 129 129 24 129 6 129
129 129 35 129 129 129 19 23 41 129 129 129 129 34 129 37 129 129 129 129 129 21 129 129 129 129 129 129 20 129 20 51 129 129 129 129 129 129 129 129 129 129 129 28 12 129 129 28 129 129 9 35 43 129 129 47 129 129 129 129 129 129 32 129 129 35 129 29 31 129 129 129 28 129 31 129 0 129 36 129 129 129 129 129
129 129 129 27 4 129 129 129 129 55 24 129 129 129 129 23 24 129 129 11 129 129 18 129 28 129 129 129 129 129 129 129 10 129 129 129 19 129 129 129 18 11 19 129 129 129 129 129 129 24 129 129 129 129 11 129 129 129 26 129 129 129 129 129 18 129 129 129 129 31 129 129 129 129 129 129 129 0 129 129 129 129 129 129
129 129 129 129 129 129 50 42 12 129 129 129 129 129 129 129 129 129 129 129 129 51 129 129 129 129 129 129 53 129 23 46 129 129 24 129 129 129 129 129 129 129 129 8 27 129 129 129 129 129 45 129 21 129 129 13 129 129 129 52 129 129 129 129 129 129 129 129 129 129 129 129 129 129 129 129 36 129 0 129 129 129 129 129
129 18 129 129 129 12 129 129 129 129 129 129 31 129 129 129 22 129 129 129 129 129 129 129 16 129 15 6 129 129 129 32 129 129 129 129 129 11 129 129 28 129 129 129 129 129 15 21 18 23 129 129 129 129 129 129 15 10 129 129 15 6 17 19 129 129 12 129 21 129 129 129 129 129 129 129 129 129 129 0 15 129 27 15
29 129 129 21 129 10 129 129 129 129 129 129 129 129 129 129 8 129 19 21 129 129 129 129 11 129 16 19 129 129 129 129 22 129 129 129 129 4 18 129 20 129 15 129 129 27 129 129 129 8 129 129 129 129 129 129 129 23 129 129 8 13 129 18 28 129 18 129 129 129 129 21 129 129 129 24 129 129 129 15 0 129 19 15
129 129 129 129 129 129 129 129 129 129 129 34 10 129 129 129 129 28 129 129 129 129 129 129 129 129 129 129 129 129 49 15 129 129 40 129 129 129 129 13 129 129 129 129 129 129 129 129 21 129 129 129 39 3 129 129 129 129 129 9 129 129 129 129 129 129 129 129 129 129 129 129 129 5 129 129 129 129 129 129 129 0 129 129
13 20 129 20 129 15 129 129 129 129 129 129 129 129 129 129 21 129 4 32 23 129 129 129 30 19 129 129 129 129 129 129 129 129 129 22 129 21 6 129 129 129 24 129 129 12 129 129 129 22 129 129 129 129 129 129 19 129 129 129 28 21 129 10 32 129 18 129 129 129 21 4 129 129 129 6 129 129 129 27 19 129 0 129
129 129 129 129 129 21 129 21 129 129 129 129 44 26 129 16 19 129 129 129 129 129 31 129 6 129 1 14 129 129 129 42 26 129 129 129 129 14 129 129 15 129 129 129 129 129 9 17 30 19 129 129 129 129 129 129 129 24 129 129 8 18 8 129 129 129 26 129 21 129 129 129 129 129 21 129 129 129 129 15 15 129 129 0
EOF
